peakDumbCharging = 7400; 
Machine = anon_enum(16); 
machineSpeed = [3700,3700,3700,3700,3700,3700,3700,3700,3700,3700,3700,3700,3700,3700,3700,3700]; 
machineLoad = [3700,3700,3700,3700,3700,3700,3700,3700,3700,3700,3700,3700,3700,3700,3700,3700]; 
Car = anon_enum(8); 
demandCar = [5800,5560,7560,19480,5160,960,4120,9960]; 
arrivalCar = [72,68,64,58,52,48,48,34]; 
departureCar = [74,71,70,65,55,49,50,39]; 
